MATILDA_Graphs/g0006.sol
SET_INDEX
11
26
553
1172
2672
2820
EOF
